Running symmetry.mzn with ins-1.dzn
8 8
4
3 3 5 0
3 5 5 3
5 3 0 5
5 5 0 0
----------
==========
%%%mzn-stat: initTime=0.001339
%%%mzn-stat: solveTime=0.000566
%%%mzn-stat: solutions=6
%%%mzn-stat: variables=18
%%%mzn-stat: propagators=15
%%%mzn-stat: propagations=251
%%%mzn-stat: nodes=27
%%%mzn-stat: failures=7
%%%mzn-stat: restarts=0
%%%mzn-stat: peakDepth=8
%%%mzn-stat-end
Finished in 113msec
Running symmetry.mzn with ins-2.dzn
9 9
5
3 3 6 0
3 4 0 5
3 5 0 0
3 6 6 3
3 9 3 0
----------
==========
%%%mzn-stat: initTime=0.000711
%%%mzn-stat: solveTime=0.000543
%%%mzn-stat: solutions=9
%%%mzn-stat: variables=22
%%%mzn-stat: propagators=16
%%%mzn-stat: propagations=835
%%%mzn-stat: nodes=123
%%%mzn-stat: failures=49
%%%mzn-stat: restarts=0
%%%mzn-stat: peakDepth=12
%%%mzn-stat-end
Finished in 121msec
Running symmetry.mzn with ins-3.dzn
10 10
6
3 3 7 7
3 4 0 6
3 6 0 0
3 7 7 0
4 4 3 6
4 6 3 0
----------
==========
%%%mzn-stat: initTime=0.000612
%%%mzn-stat: solveTime=0.000577
%%%mzn-stat: solutions=7
%%%mzn-stat: variables=26
%%%mzn-stat: propagators=19
%%%mzn-stat: propagations=1142
%%%mzn-stat: nodes=130
%%%mzn-stat: failures=51
%%%mzn-stat: restarts=0
%%%mzn-stat: peakDepth=15
%%%mzn-stat-end
Finished in 120msec
Running symmetry.mzn with ins-4.dzn
11 11
7
3 3 5 8
3 4 5 4
3 5 8 0
3 6 8 5
5 3 0 4
5 4 0 7
8 4 0 0
----------
==========
%%%mzn-stat: initTime=0.000745
%%%mzn-stat: solveTime=0.001882
%%%mzn-stat: solutions=12
%%%mzn-stat: variables=30
%%%mzn-stat: propagators=21
%%%mzn-stat: propagations=3546
%%%mzn-stat: nodes=412
%%%mzn-stat: failures=178
%%%mzn-stat: restarts=0
%%%mzn-stat: peakDepth=17
%%%mzn-stat-end
Finished in 123msec
Running symmetry.mzn with ins-5.dzn
12 12
8
3 3 0 0
3 4 9 0
3 5 6 0
3 6 0 3
3 7 6 5
3 8 9 4
3 9 3 0
6 3 0 9
----------
==========
%%%mzn-stat: initTime=0.00066
%%%mzn-stat: solveTime=0.008868
%%%mzn-stat: solutions=12
%%%mzn-stat: variables=34
%%%mzn-stat: propagators=23
%%%mzn-stat: propagations=16700
%%%mzn-stat: nodes=2159
%%%mzn-stat: failures=1057
%%%mzn-stat: restarts=0
%%%mzn-stat: peakDepth=24
%%%mzn-stat-end
Finished in 129msec
Running symmetry.mzn with ins-6.dzn
13 13
9
3 3 0 4
3 4 0 0
3 5 10 8
3 6 0 7
3 7 7 6
3 8 10 0
4 3 3 6
4 4 3 9
7 6 3 0
----------
==========
%%%mzn-stat: initTime=0.001196
%%%mzn-stat: solveTime=0.016617
%%%mzn-stat: solutions=15
%%%mzn-stat: variables=38
%%%mzn-stat: propagators=25
%%%mzn-stat: propagations=28006
%%%mzn-stat: nodes=3741
%%%mzn-stat: failures=1827
%%%mzn-stat: restarts=0
%%%mzn-stat: peakDepth=31
%%%mzn-stat-end
Finished in 147msec
Running symmetry.mzn with ins-7.dzn
14 14
9
3 3 0 7
3 4 5 10
3 5 11 0
3 6 8 8
3 7 0 0
3 8 8 0
3 9 11 5
5 4 0 10
5 10 3 0
----------
==========
%%%mzn-stat: initTime=0.000713
%%%mzn-stat: solveTime=0.004627
%%%mzn-stat: solutions=15
%%%mzn-stat: variables=38
%%%mzn-stat: propagators=25
%%%mzn-stat: propagations=8217
%%%mzn-stat: nodes=1130
%%%mzn-stat: failures=522
%%%mzn-stat: restarts=0
%%%mzn-stat: peakDepth=30
%%%mzn-stat-end
Finished in 142msec
Running symmetry.mzn with ins-8.dzn
15 15
10
3 3 9 4
3 4 9 0
3 5 3 3
3 6 12 9
3 7 3 8
3 8 9 7
3 9 12 0
3 12 0 3
3 15 6 0
6 3 0 0
----------
==========
%%%mzn-stat: initTime=0.001184
%%%mzn-stat: solveTime=0.027733
%%%mzn-stat: solutions=24
%%%mzn-stat: variables=42
%%%mzn-stat: propagators=26
%%%mzn-stat: propagations=50877
%%%mzn-stat: nodes=6275
%%%mzn-stat: failures=3069
%%%mzn-stat: restarts=0
%%%mzn-stat: peakDepth=43
%%%mzn-stat-end
Finished in 158msec
Running symmetry.mzn with ins-9.dzn
16 16
10
3 3 10 13
3 4 7 0
3 5 10 8
3 6 13 0
3 7 0 9
3 8 10 0
3 10 13 6
3 12 7 4
4 7 3 9
7 9 0 0
----------
==========
%%%mzn-stat: initTime=0.000723
%%%mzn-stat: solveTime=0.044246
%%%mzn-stat: solutions=20
%%%mzn-stat: variables=42
%%%mzn-stat: propagators=27
%%%mzn-stat: propagations=79379
%%%mzn-stat: nodes=10147
%%%mzn-stat: failures=5019
%%%mzn-stat: restarts=0
%%%mzn-stat: peakDepth=33
%%%mzn-stat-end
Finished in 166msec
Running symmetry.mzn with ins-10.dzn
17 17
12
3 3 14 5
3 4 7 7
3 5 14 0
3 6 4 8
3 7 7 0
3 8 4 0
3 9 14 8
4 3 10 0
4 8 10 3
4 14 0 0
7 3 0 14
7 6 7 11
----------
==========
%%%mzn-stat: initTime=0.000766
%%%mzn-stat: solveTime=1.10038
%%%mzn-stat: solutions=22
%%%mzn-stat: variables=50
%%%mzn-stat: propagators=31
%%%mzn-stat: propagations=1704217
%%%mzn-stat: nodes=192582
%%%mzn-stat: failures=96206
%%%mzn-stat: restarts=0
%%%mzn-stat: peakDepth=35
%%%mzn-stat-end
Finished in 1s 222msec
Running symmetry.mzn with ins-11.dzn
=====UNKNOWN=====
%%%mzn-stat: initTime=0.000876
%%%mzn-stat: solveTime=299.874
%%%mzn-stat: solutions=0
%%%mzn-stat: variables=66
%%%mzn-stat: propagators=39
%%%mzn-stat: propagations=480990036
%%%mzn-stat: nodes=65159112
%%%mzn-stat: failures=32579542
%%%mzn-stat: restarts=0
%%%mzn-stat: peakDepth=43
%%%mzn-stat-end
Finished in 4m 59s
Running symmetry.mzn with ins-12.dzn
19 19
14
3 3 16 9
3 4 9 0
3 5 9 4
3 6 0 0
3 7 16 12
3 8 3 0
3 9 16 0
3 10 9 9
3 11 3 8
3 13 0 6
3 19 6 0
4 5 12 6
4 6 12 0
4 8 12 11
----------
==========
%%%mzn-stat: initTime=0.000861
%%%mzn-stat: solveTime=105.459
%%%mzn-stat: solutions=34
%%%mzn-stat: variables=58
%%%mzn-stat: propagators=34
%%%mzn-stat: propagations=146443730
%%%mzn-stat: nodes=22197167
%%%mzn-stat: failures=11098418
%%%mzn-stat: restarts=0
%%%mzn-stat: peakDepth=59
%%%mzn-stat-end
Finished in 1m 45s
Running symmetry.mzn with ins-13.dzn
20 23
14
3 3 10 3
3 4 3 12
3 5 10 7
3 6 17 9
3 7 3 16
3 8 17 15
3 9 14 11
3 10 13 0
3 11 3 1
3 17 0 2
4 3 6 18
4 9 16 0
4 11 10 12
4 17 6 1
----------
%%%mzn-stat: initTime=0.000817
%%%mzn-stat: solveTime=299.877
%%%mzn-stat: solutions=26
%%%mzn-stat: variables=58
%%%mzn-stat: propagators=35
%%%mzn-stat: propagations=404754385
%%%mzn-stat: nodes=71006384
%%%mzn-stat: failures=35503054
%%%mzn-stat: restarts=0
%%%mzn-stat: peakDepth=49
%%%mzn-stat-end
Finished in 4m 59s
Running symmetry.mzn with ins-14.dzn
21 22
15
3 3 3 4
3 4 17 6
3 5 14 17
3 6 11 0
3 7 6 15
3 8 14 9
3 9 14 0
3 10 11 6
3 14 3 7
3 18 0 4
4 4 0 0
4 6 17 0
4 11 17 10
5 6 9 16
5 15 6 0
----------
%%%mzn-stat: initTime=0.000874
%%%mzn-stat: solveTime=299.876
%%%mzn-stat: solutions=35
%%%mzn-stat: variables=62
%%%mzn-stat: propagators=37
%%%mzn-stat: propagations=410414088
%%%mzn-stat: nodes=59618285
%%%mzn-stat: failures=29808938
%%%mzn-stat: restarts=0
%%%mzn-stat: peakDepth=56
%%%mzn-stat-end
Finished in 4m 59s
Running symmetry.mzn with ins-15.dzn
22 39
16
3 3 19 13
3 4 19 8
3 5 7 1
3 6 18 1
3 7 16 8
3 8 16 18
3 9 16 30
3 10 4 5
3 11 13 11
3 12 0 24
3 13 7 7
3 14 10 9
3 22 4 15
4 3 15 26
4 19 0 1
6 4 12 2
----------
%%%mzn-stat: initTime=0.000956
%%%mzn-stat: solveTime=299.881
%%%mzn-stat: solutions=17
%%%mzn-stat: variables=66
%%%mzn-stat: propagators=39
%%%mzn-stat: propagations=417596148
%%%mzn-stat: nodes=48942932
%%%mzn-stat: failures=24471312
%%%mzn-stat: restarts=0
%%%mzn-stat: peakDepth=60
%%%mzn-stat-end
Finished in 5m 0s
Running symmetry.mzn with ins-16.dzn
23 89
19
3 3 1 73
3 4 9 38
3 5 19 44
3 6 20 7
3 7 1 49
3 8 10 45
3 9 6 58
3 10 16 52
3 11 20 52
3 12 4 69
3 14 13 45
3 20 10 0
4 3 7 78
4 4 14 41
4 6 15 83
4 10 19 75
4 11 9 54
4 12 0 57
6 3 17 32
----------
%%%mzn-stat: initTime=0.001008
%%%mzn-stat: solveTime=299.88
%%%mzn-stat: solutions=11
%%%mzn-stat: variables=78
%%%mzn-stat: propagators=45
%%%mzn-stat: propagations=343587061
%%%mzn-stat: nodes=58220752
%%%mzn-stat: failures=29110256
%%%mzn-stat: restarts=0
%%%mzn-stat: peakDepth=61
%%%mzn-stat-end
Finished in 5m 0s
Running symmetry.mzn with ins-17.dzn
24 25
18
3 3 15 0
3 4 15 3
3 5 21 1
3 6 15 7
3 7 3 11
3 8 3 2
3 9 7 16
3 10 18 15
3 12 15 13
3 14 18 0
3 18 21 6
3 24 0 0
4 3 3 18
4 4 3 21
4 5 11 0
4 12 11 5
5 8 10 17
5 16 6 0
----------
%%%mzn-stat: initTime=0.001171
%%%mzn-stat: solveTime=299.877
%%%mzn-stat: solutions=39
%%%mzn-stat: variables=74
%%%mzn-stat: propagators=43
%%%mzn-stat: propagations=412560601
%%%mzn-stat: nodes=41673448
%%%mzn-stat: failures=20836443
%%%mzn-stat: restarts=0
%%%mzn-stat: peakDepth=82
%%%mzn-stat-end
Finished in 4m 59s
Running symmetry.mzn with ins-18.dzn
25 43
19
3 3 5 11
3 4 14 39
3 5 7 25
3 6 19 34
3 7 0 26
3 8 13 20
3 9 7 31
3 10 14 9
3 11 0 15
3 13 4 28
3 14 16 21
3 17 19 16
3 18 22 25
3 19 22 5
3 25 8 0
4 5 0 35
4 7 10 35
4 13 3 14
6 3 10 29
----------
%%%mzn-stat: initTime=0.000963
%%%mzn-stat: solveTime=299.879
%%%mzn-stat: solutions=32
%%%mzn-stat: variables=78
%%%mzn-stat: propagators=44
%%%mzn-stat: propagations=345557361
%%%mzn-stat: nodes=39202637
%%%mzn-stat: failures=19600999
%%%mzn-stat: restarts=0
%%%mzn-stat: peakDepth=62
%%%mzn-stat-end
Finished in 5m 0s
Running symmetry.mzn with ins-19.dzn
26 100
22
3 3 8 97
3 4 1 50
3 5 14 41
3 6 2 87
3 7 12 62
3 8 2 1
3 9 9 82
3 10 11 12
3 11 14 87
3 12 20 20
3 14 2 60
3 15 21 74
3 16 5 40
3 17 16 59
3 19 6 0
4 3 20 57
4 4 18 32
4 5 3 82
4 7 6 71
4 8 0 11
4 11 19 3
4 14 17 84
----------
%%%mzn-stat: initTime=0.001078
%%%mzn-stat: solveTime=299.875
%%%mzn-stat: solutions=20
%%%mzn-stat: variables=90
%%%mzn-stat: propagators=51
%%%mzn-stat: propagations=296295822
%%%mzn-stat: nodes=30878664
%%%mzn-stat: failures=15439064
%%%mzn-stat: restarts=0
%%%mzn-stat: peakDepth=60
%%%mzn-stat-end
Finished in 4m 59s
Running symmetry.mzn with ins-20.dzn
27 79
21
3 3 9 64
3 4 0 67
3 5 19 66
3 6 0 61
3 7 19 25
3 8 16 40
3 9 8 33
3 10 19 56
3 11 12 59
3 12 6 62
3 19 3 51
3 20 22 43
3 21 5 30
4 3 22 37
4 4 0 35
4 6 12 28
4 7 12 4
4 8 15 59
4 14 22 65
4 19 12 39
4 20 4 0
----------
%%%mzn-stat: initTime=0.001552
%%%mzn-stat: solveTime=299.878
%%%mzn-stat: solutions=18
%%%mzn-stat: variables=86
%%%mzn-stat: propagators=49
%%%mzn-stat: propagations=316656127
%%%mzn-stat: nodes=28992418
%%%mzn-stat: failures=14495991
%%%mzn-stat: restarts=0
%%%mzn-stat: peakDepth=52
%%%mzn-stat-end
Finished in 5m 0s
